1 1 -2 0
1 -1 3 0
1 4 5 0
1 3 -5 0
1 3 6 0
1 -3 4 0
1 -3 -7 0
1 -8 1 0
1 2 -9 0
1 2 8 0
1 10 11 0
1 -10 12 0
1 13 -14 0
1 -13 -11 0
1 15 16 0
1 -17 18 0
1 17 13 0
1 -19 -20 0
1 -19 21 0
1 19 -16 0
1 -22 23 0
1 22 -24 0
1 25 -17 0
1 26 -25 0
1 -27 -12 0
1 28 -26 0
1 28 29 0
1 11 -30 0
1 12 13 0
1 -12 24 0
1 -31 -32 0
1 -33 34 0
1 33 -35 0
1 -33 36 0
1 -37 -38 0
1 -37 39 0
1 37 -33 0
1 -40 37 0
1 34 41 0
1 42 43 0
1 -39 37 0
1 -39 -44 0
1 -45 -41 0
1 45 46 0
1 -9 -13 0
1 -9 47 0
1 9 -48 0
1 -9 46 0
1 -49 -44 0
1 -49 50 0
1 -44 -51 0
1 35 -9 0
1 5 -26 0
1 -5 -38 0
1 5 -19 0
1 50 19 0
1 -50 -52 0
1 -20 -53 0
1 -47 -7 0
1 -46 20 0
1 46 54 0
1 55 56 0
1 48 57 0
1 23 -58 0
1 -24 -23 0
1 -59 -12 0
1 60 50 0
1 -61 23 0
1 -62 63 0
1 62 64 0
1 -58 50 0
1 30 -14 0
1 30 65 0
1 65 66 0
1 67 -68 0
1 68 66 0
1 -66 30 0
1 -69 70 0
1 69 -65 0
1 -70 -63 0
1 -70 71 0
1 70 -72 0
1 73 -74 0
1 -29 -67 0
1 -75 76 0
1 77 -78 0
1 77 -79 0
1 -77 67 0
1 -80 -81 0
1 -80 -82 0
1 83 -32 0
1 32 84 0
1 32 -31 0
1 32 85 0
1 -86 87 0
1 -86 -88 0
1 89 90 0
1 90 89 0
1 -90 -91 0
1 90 86 0
1 92 89 0
1 -92 -93 0
1 84 -94 0
1 95 92 0
1 95 96 0
1 95 97 0
1 -41 98 0
1 99 -34 0
1 96 100 0
1 101 -99 0
1 -102 -99 0
1 -102 -103 0
1 -102 104 0
1 38 40 0
1 38 -105 0
1 53 36 0
1 -53 97 0
1 106 107 0
1 -106 108 0
1 -106 -109 0
1 98 107 0
1 -98 -52 0
1 98 -109 0
1 105 -109 0
1 -110 38 0
1 -110 111 0
1 -110 -52 0
1 108 -112 0
1 57 106 0
1 57 -55 0
1 -57 -113 0
1 57 -114 0
1 -112 115 0
1 -112 116 0
1 112 64 0
1 117 107 0
1 117 56 0
1 -118 107 0
1 54 -111 0
1 -116 58 0
1 119 49 0
1 119 120 0
1 119 116 0
1 121 116 0
1 122 -35 0
1 122 -64 0
1 -113 116 0
1 120 121 0
1 123 124 0
1 -123 -125 0
1 74 -119 0
1 126 64 0
1 -127 -128 0
1 -129 -128 0
1 -129 116 0
1 129 64 0
1 -71 -124 0
1 71 66 0
1 125 -130 0
1 -124 -131 0
1 -124 132 0
1 124 133 0
1 -124 134 0
1 135 136 0
1 135 -71 0
1 -131 75 0
1 -137 124 0
1 -137 -138 0
1 -137 139 0
1 -140 -141 0
1 140 142 0
1 140 143 0
1 -141 -66 0
1 -143 -140 0
1 -143 133 0
1 144 145 0
1 146 -147 0
1 -148 -141 0
1 149 150 0
1 -151 -152 0
1 147 148 0
1 -153 154 0
1 -153 146 0
1 155 -156 0
1 -88 157 0
1 88 158 0
1 88 159 0
1 -160 161 0
1 160 -162 0
1 158 88 0
1 157 -163 0
1 -157 -164 0
1 -157 165 0
1 156 166 0
1 156 -165 0
1 -167 168 0
1 162 169 0
1 170 -171 0
1 170 161 0
1 -170 172 0
1 170 87 0
1 170 -158 0
1 -170 -168 0
1 -169 -173 0
1 -169 174 0
1 -175 176 0
1 -168 177 0
1 168 178 0
1 -168 -170 0
1 93 90 0
1 93 94 0
1 93 -92 0
1 -93 169 0
1 -94 -179 0
1 94 -172 0
1 -94 87 0
1 104 -180 0
1 -104 -179 0
1 172 180 0
1 -172 94 0
1 172 170 0
1 181 180 0
1 181 94 0
1 -179 -173 0
1 -171 161 0
1 171 93 0
1 -182 181 0
1 -182 -183 0
1 -182 173 0
1 -182 105 0
1 -184 -110 0
1 -184 185 0
1 186 -181 0
1 186 110 0
1 186 -91 0
1 114 181 0
1 -183 187 0
1 183 -186 0
1 -185 188 0
1 188 189 0
1 111 -103 0
1 -111 -105 0
1 190 110 0
1 191 192 0
1 -192 183 0
1 -192 193 0
1 194 -195 0
1 -196 -191 0
1 196 197 0
1 196 198 0
1 -196 -114 0
1 103 -187 0
1 -199 -200 0
1 -199 117 0
1 -201 -202 0
1 201 203 0
1 -204 203 0
1 205 128 0
1 -205 -201 0
1 206 -207 0
1 206 98 0
1 -208 192 0
1 -128 -205 0
1 -209 205 0
1 209 129 0
1 207 205 0
1 210 211 0
1 -210 -212 0
1 210 -213 0
1 210 204 0
1 202 214 0
1 215 128 0
1 215 -209 0
1 -216 207 0
1 -216 217 0
1 -211 218 0
1 213 218 0
1 219 133 0
1 -220 211 0
1 -220 138 0
1 220 121 0
1 -220 -221 0
1 -220 -150 0
1 222 212 0
1 133 223 0
1 132 224 0
1 150 -225 0
1 150 -226 0
1 152 -227 0
1 152 150 0
1 227 213 0
1 -154 -228 0
1 154 225 0
1 -229 -136 0
1 229 -230 0
1 231 145 0
1 232 -233 0
1 -232 234 0
1 -235 -236 0
1 235 237 0
1 235 -230 0
1 230 238 0
1 233 239 0
1 233 238 0
1 -145 -231 0
1 -145 -240 0
1 145 241 0
1 242 -232 0
1 -243 -235 0
1 243 244 0
1 243 -245 0
1 243 -246 0
1 -243 -147 0
1 247 248 0
1 247 249 0
1 -247 232 0
1 250 -251 0
1 -250 252 0
1 250 253 0
1 250 -155 0
1 252 -250 0
1 -159 251 0
1 -159 -254 0
1 -159 255 0
1 -159 88 0
1 251 256 0
1 251 -257 0
1 -251 254 0
1 251 -252 0
1 -251 -165 0
1 255 -165 0
1 253 258 0
1 -259 -260 0
1 -259 -252 0
1 165 -261 0
1 261 -262 0
1 166 -262 0
1 -166 263 0
1 -166 -157 0
1 -262 -264 0
1 262 -265 0
1 262 -164 0
1 266 -261 0
1 -266 -265 0
1 266 159 0
1 -164 -267 0
1 -164 268 0
1 269 -257 0
1 269 -264 0
1 -178 -168 0
1 -177 -180 0
1 177 270 0
1 -177 -271 0
1 -177 272 0
1 273 -177 0
1 273 269 0
1 273 -173 0
1 274 275 0
1 -274 -178 0
1 276 171 0
1 276 -186 0
1 276 -267 0
1 -276 -277 0
1 278 -279 0
1 -270 280 0
1 -281 -278 0
1 281 -111 0
1 -282 -171 0
1 282 278 0
1 282 272 0
1 282 283 0
1 189 -284 0
1 -189 -285 0
1 -193 286 0
1 193 -192 0
1 -287 169 0
1 -287 -197 0
1 287 282 0
1 -288 289 0
1 277 290 0
1 187 91 0
1 197 -291 0
1 197 -187 0
1 -197 -287 0
1 -292 293 0
1 292 294 0
1 289 293 0
1 289 -196 0
1 285 295 0
1 -293 -292 0
1 293 189 0
1 293 -295 0
1 -293 -289 0
1 -296 -103 0
1 296 -290 0
1 297 294 0
1 297 -298 0
1 -297 -299 0
1 -295 -293 0
1 295 -208 0
1 295 -217 0
1 299 300 0
1 -299 301 0
1 299 -302 0
1 -299 -296 0
1 -298 -303 0
1 -298 183 0
1 -298 -292 0
1 304 303 0
1 304 -300 0
1 304 185 0
1 -294 -297 0
1 294 -305 0
1 306 -211 0
1 -302 -298 0
1 302 -208 0
1 302 -299 0
1 307 -308 0
1 -307 -301 0
1 307 -309 0
1 -309 310 0
1 195 -310 0
1 198 307 0
1 -198 297 0
1 -198 302 0
1 198 311 0
1 -212 -215 0
1 312 -313 0
1 -314 206 0
1 314 -315 0
1 316 317 0
1 318 307 0
1 -318 -316 0
1 318 319 0
1 318 310 0
1 318 226 0
1 -320 310 0
1 320 321 0
1 -322 229 0
1 -322 -323 0
1 -324 325 0
1 -313 -326 0
1 313 -327 0
1 -328 -329 0
1 329 -330 0
1 331 -332 0
1 333 -231 0
1 -334 -313 0
1 236 228 0
1 -236 335 0
1 236 -336 0
1 337 -219 0
1 -337 338 0
1 -339 -324 0
1 -339 340 0
1 332 324 0
1 341 -237 0
1 -341 -136 0
1 342 -237 0
1 -343 -344 0
1 336 -224 0
1 336 345 0
1 336 -334 0
1 336 346 0
1 -347 -348 0
1 347 -343 0
1 249 349 0
1 244 348 0
1 -350 351 0
1 350 -240 0
1 352 353 0
1 352 349 0
1 -354 237 0
1 354 355 0
1 354 -343 0
1 -356 355 0
1 356 353 0
1 248 357 0
1 -246 -242 0
1 246 -358 0
1 246 -359 0
1 -360 361 0
1 -239 350 0
1 -358 -355 0
1 -240 355 0
1 -240 353 0
1 362 -363 0
1 -362 361 0
1 364 -365 0
1 366 -359 0
1 361 367 0
1 -368 -367 0
1 -368 369 0
1 370 250 0
1 -370 371 0
1 371 -252 0
1 372 373 0
1 372 374 0
1 -375 -370 0
1 376 -260 0
1 -376 -377 0
1 378 -371 0
1 379 -380 0
1 379 -381 0
1 -379 -253 0
1 -260 261 0
1 382 -381 0
1 -382 -259 0
1 382 166 0
1 -382 383 0
1 382 253 0
1 -384 385 0
1 384 386 0
1 -374 387 0
1 381 -387 0
1 -381 -382 0
1 -381 379 0
1 386 -388 0
1 -380 -382 0
1 -268 -266 0
1 -268 -389 0
1 -257 255 0
1 -390 -391 0
1 390 -381 0
1 391 392 0
1 -389 -393 0
1 394 -257 0
1 383 395 0
1 -265 -389 0
1 -396 262 0
1 -396 -274 0
1 -397 256 0
1 275 -394 0
1 -256 398 0
1 -399 -400 0
1 399 255 0
1 399 -401 0
1 258 -395 0
1 402 -396 0
1 402 -397 0
1 402 403 0
1 404 -281 0
1 283 -405 0
1 -283 274 0
1 406 -405 0
1 -280 -399 0
1 -405 -404 0
1 405 407 0
1 408 409 0
1 410 -397 0
1 -411 405 0
1 412 405 0
1 412 -270 0
1 -412 403 0
1 -413 414 0
1 415 416 0
1 417 -273 0
1 417 -413 0
1 417 411 0
1 -417 418 0
1 419 -267 0
1 -419 280 0
1 -416 420 0
1 -416 -421 0
1 420 422 0
1 420 -274 0
1 -420 -412 0
1 -290 -423 0
1 -290 286 0
1 290 -419 0
1 -424 -414 0
1 -424 425 0
1 -418 -417 0
1 414 305 0
1 -426 -427 0
1 426 -428 0
1 423 -429 0
1 425 -271 0
1 430 414 0
1 -305 291 0
1 305 294 0
1 431 432 0
1 431 433 0
1 -434 431 0
1 434 435 0
1 -436 437 0
1 -436 -438 0
1 436 -439 0
1 439 431 0
1 439 440 0
1 -439 438 0
1 311 -441 0
1 -311 442 0
1 -443 -433 0
1 -443 444 0
1 -445 -446 0
1 -433 -431 0
1 -433 285 0
1 -433 -447 0
1 -448 -449 0
1 -448 447 0
1 448 -450 0
1 449 448 0
1 449 443 0
1 -451 -433 0
1 -310 195 0
1 -323 -452 0
1 444 -445 0
1 444 330 0
1 453 319 0
1 -453 443 0
1 -446 -454 0
1 -446 -455 0
1 446 -456 0
1 457 -454 0
1 457 -458 0
1 457 -446 0
1 -330 -318 0
1 -319 314 0
1 459 460 0
1 -335 -444 0
1 -461 -462 0
1 -461 463 0
1 461 -340 0
1 -464 -454 0
1 -464 -465 0
1 326 466 0
1 467 -332 0
1 -340 339 0
1 460 468 0
1 460 346 0
1 466 -469 0
1 470 -471 0
1 -468 -347 0
1 -472 460 0
1 472 -468 0
1 348 460 0
1 346 473 0
1 346 474 0
1 346 338 0
1 346 475 0
1 346 476 0
1 -346 -347 0
1 476 477 0
1 476 357 0
1 476 478 0
1 -476 479 0
1 -480 469 0
1 -481 482 0
1 -481 346 0
1 -479 473 0
1 479 -357 0
1 -479 -356 0
1 -479 -483 0
1 477 338 0
1 -477 484 0
1 485 -338 0
1 485 369 0
1 338 -355 0
1 475 355 0
1 -475 -221 0
1 475 486 0
1 -475 -487 0
1 474 -477 0
1 -474 488 0
1 474 478 0
1 355 240 0
1 355 356 0
1 355 -358 0
1 363 489 0
1 363 345 0
1 363 490 0
1 363 -491 0
1 490 -492 0
1 -490 -493 0
1 -490 485 0
1 -345 -363 0
1 -345 -353 0
1 494 495 0
1 -494 345 0
1 494 347 0
1 -496 -240 0
1 -491 497 0
1 -498 499 0
1 498 367 0
1 500 486 0
1 500 501 0
1 -502 -367 0
1 502 361 0
1 -367 491 0
1 -503 -504 0
1 -499 -505 0
1 -499 506 0
1 -506 -499 0
1 505 367 0
1 -507 508 0
1 509 -367 0
1 509 510 0
1 509 -511 0
1 512 513 0
1 513 506 0
1 -514 -505 0
1 514 -515 0
1 -514 -504 0
1 -516 -517 0
1 517 -513 0
1 504 516 0
1 -504 361 0
1 504 -518 0
1 519 370 0
1 -520 -521 0
1 -520 522 0
1 523 524 0
1 -525 520 0
1 525 526 0
1 -525 527 0
1 528 529 0
1 528 530 0
1 -529 521 0
1 524 -531 0
1 -524 -532 0
1 -533 -532 0
1 -533 -534 0
1 -535 -529 0
1 -535 -377 0
1 -531 529 0
1 531 536 0
1 -521 -528 0
1 537 377 0
1 538 522 0
1 -539 -380 0
1 -539 540 0
1 541 -542 0
1 532 524 0
1 -532 -543 0
1 543 -533 0
1 -387 -536 0
1 -387 383 0
1 -544 -385 0
1 -545 546 0
1 -547 -548 0
1 -547 549 0
1 548 -544 0
1 -548 -539 0
1 548 -550 0
1 548 538 0
1 -540 551 0
1 -540 552 0
1 551 -545 0
1 551 -546 0
1 551 -540 0
1 553 -548 0
1 553 394 0
1 -395 388 0
1 554 -388 0
1 -554 -280 0
1 -554 258 0
1 555 -556 0
1 -555 557 0
1 555 -558 0
1 -557 409 0
1 388 -550 0
1 388 553 0
1 388 -559 0
1 388 558 0
1 560 -561 0
1 -560 -554 0
1 400 -562 0
1 400 -563 0
1 403 -564 0
1 -409 -398 0
1 409 565 0
1 -393 550 0
1 -393 554 0
1 -563 400 0
1 566 416 0
1 -421 -290 0
1 -567 568 0
1 567 -420 0
1 -569 -565 0
1 398 256 0
1 -398 -421 0
1 570 421 0
1 -570 -258 0
1 -422 571 0
1 -422 -416 0
1 -422 -401 0
1 429 572 0
1 -429 419 0
1 -573 574 0
1 -573 -575 0
1 -576 573 0
1 -576 -407 0
1 -577 -574 0
1 -577 -578 0
1 427 425 0
1 -579 -423 0
1 438 580 0
1 438 -581 0
1 -582 576 0
1 583 582 0
1 583 579 0
1 575 438 0
1 -580 584 0
1 -585 -427 0
1 585 580 0
1 585 -420 0
1 -586 -449 0
1 -586 -437 0
1 586 -583 0
1 586 -436 0
1 -586 -451 0
1 437 449 0
1 450 587 0
1 -450 -583 0
1 450 588 0
1 -589 590 0
1 -581 591 0
1 581 -592 0
1 -593 -584 0
1 593 -423 0
1 -593 582 0
1 -593 -594 0
1 -595 -593 0
1 447 -449 0
1 447 -448 0
1 -456 -591 0
1 591 596 0
1 -591 597 0
1 -588 598 0
1 588 -432 0
1 588 599 0
1 590 -594 0
1 -590 -456 0
1 590 -447 0
1 440 600 0
1 458 454 0
1 -458 326 0
1 458 601 0
1 454 -467 0
1 -454 597 0
1 454 -452 0
1 -454 601 0
1 -454 444 0
1 -454 -464 0
1 465 -340 0
1 465 602 0
1 -465 603 0
1 -465 -455 0
1 -598 -601 0
1 603 471 0
1 -603 -433 0
1 -603 -604 0
1 -597 454 0
1 -597 605 0
1 -601 -458 0
1 601 448 0
1 -596 -449 0
1 596 591 0
1 -462 464 0
1 -604 470 0
1 -604 464 0
1 -471 -463 0
1 -606 -607 0
1 -606 608 0
1 608 609 0
1 -608 610 0
1 -611 598 0
1 -455 598 0
1 455 -605 0
1 469 605 0
1 -469 470 0
1 469 481 0
1 469 -483 0
1 -483 463 0
1 483 315 0
1 -612 613 0
1 612 -481 0
1 482 480 0
1 -614 615 0
1 -463 482 0
1 616 -615 0
1 616 609 0
1 -617 -478 0
1 478 -474 0
1 -618 619 0
1 620 -621 0
1 620 -622 0
1 621 -617 0
1 621 623 0
1 -621 482 0
1 -624 -625 0
1 -624 -482 0
1 -626 478 0
1 -627 -492 0
1 -627 -628 0
1 -627 -475 0
1 488 627 0
1 -488 629 0
1 630 629 0
1 629 620 0
1 628 627 0
1 628 -488 0
1 631 632 0
1 633 490 0
1 633 -634 0
1 501 -634 0
1 -501 -635 0
1 501 -636 0
1 637 -638 0
1 637 501 0
1 487 -630 0
1 -634 -630 0
1 -634 -639 0
1 -640 -489 0
1 640 509 0
1 -640 636 0
1 -497 641 0
1 -497 500 0
1 497 -507 0
1 497 -642 0
1 511 -643 0
1 511 644 0
1 511 -642 0
1 645 643 0
1 -493 646 0
1 647 -501 0
1 636 -648 0
1 -642 649 0
1 650 647 0
1 651 -650 0
1 651 506 0
1 652 653 0
1 -652 654 0
1 644 645 0
1 -644 -655 0
1 644 -656 0
1 -644 -657 0
1 -658 -659 0
1 658 -660 0
1 655 504 0
1 661 659 0
1 -657 654 0
1 657 660 0
1 654 653 0
1 -653 -662 0
1 653 661 0
1 653 -663 0
1 508 -664 0
1 -665 -652 0
1 -665 666 0
1 -665 -667 0
1 662 -518 0
1 518 -668 0
1 -669 662 0
1 -536 543 0
1 670 535 0
1 -671 -672 0
1 673 526 0
1 673 -674 0
1 -675 -673 0
1 675 -676 0
1 675 -542 0
1 -672 -673 0
1 -672 676 0
1 677 -671 0
1 -542 674 0
1 678 -395 0
1 -678 532 0
1 678 540 0
1 -676 551 0
1 679 672 0
1 -680 674 0
1 -674 -681 0
1 674 -671 0
1 -682 -683 0
1 -684 -678 0
1 552 -685 0
1 686 -687 0
1 688 -689 0
1 688 679 0
1 690 549 0
1 -685 -686 0
1 -691 -686 0
1 691 549 0
1 692 557 0
1 692 558 0
1 -558 -690 0
1 -558 692 0
1 689 -693 0
1 689 -563 0
1 693 571 0
1 -694 -695 0
1 -694 693 0
1 696 697 0
1 571 -698 0
1 -698 565 0
1 -695 -570 0
1 -695 694 0
1 695 -573 0
1 556 699 0
1 556 578 0
1 556 -555 0
1 556 -700 0
1 561 -695 0
1 -701 702 0
1 701 -565 0
1 578 -702 0
1 -578 579 0
1 578 -401 0
1 -703 -704 0
1 -703 705 0
1 703 -438 0
1 699 -706 0
1 699 707 0
1 708 701 0
1 -708 -699 0
1 -708 578 0
1 -708 709 0
1 708 -710 0
1 708 393 0
1 705 -701 0
1 705 711 0
1 705 578 0
1 705 -712 0
1 713 -564 0
1 -713 -714 0
1 715 576 0
1 716 717 0
1 716 -705 0
1 -716 -718 0
1 712 450 0
1 712 708 0
1 719 705 0
1 719 -585 0
1 -719 708 0
1 720 -721 0
1 720 -722 0
1 720 712 0
1 -706 -584 0
1 -706 -712 0
1 -723 719 0
1 -718 -724 0
1 -725 -720 0
1 725 -584 0
1 -584 -726 0
1 -584 580 0
1 584 -727 0
1 721 -591 0
1 -721 -706 0
1 721 -727 0
1 726 -594 0
1 -728 729 0
1 727 730 0
1 727 -719 0
1 727 -731 0
1 -594 -732 0
1 -733 454 0
1 -733 -581 0
1 -732 734 0
1 732 -602 0
1 732 594 0
1 735 -733 0
1 735 599 0
1 736 733 0
1 -736 737 0
1 736 -738 0
1 -737 729 0
1 737 739 0
1 740 735 0
1 599 -596 0
1 599 -741 0
1 -742 -735 0
1 743 -744 0
1 741 581 0
1 -741 -745 0
1 -746 -600 0
1 746 -739 0
1 605 -747 0
1 -605 741 0
1 605 -601 0
1 -605 -748 0
1 749 -597 0
1 -749 739 0
1 749 -748 0
1 -613 750 0
1 613 -751 0
1 -752 -613 0
1 -752 -742 0
1 752 753 0
1 747 613 0
1 747 743 0
1 -744 -754 0
1 -744 742 0
1 -754 -744 0
1 755 -756 0
1 -622 757 0
1 -750 -756 0
1 750 613 0
1 756 613 0
1 756 -758 0
1 -751 -613 0
1 -757 -596 0
1 -759 -614 0
1 -615 614 0
1 -758 760 0
1 -758 750 0
1 -758 610 0
1 -610 758 0
1 761 762 0
1 -763 455 0
1 764 623 0
1 764 626 0
1 623 -631 0
1 623 765 0
1 -623 766 0
1 762 767 0
1 762 -768 0
1 -638 -769 0
1 770 771 0
1 -770 -765 0
1 770 -772 0
1 -773 774 0
1 -775 -765 0
1 -641 -497 0
1 772 -776 0
1 767 621 0
1 777 778 0
1 769 776 0
1 -769 -762 0
1 -776 -779 0
1 -776 -772 0
1 -639 780 0
1 648 781 0
1 -782 -783 0
1 784 -785 0
1 786 639 0
1 786 -787 0
1 -788 -648 0
1 660 -789 0
1 789 790 0
1 -789 -782 0
1 -791 -792 0
1 793 792 0
1 -794 -790 0
1 794 795 0
1 794 793 0
1 666 -796 0
1 -666 -649 0
1 667 -797 0
1 798 -799 0
1 798 -636 0
1 -649 798 0
1 800 -682 0
1 800 -801 0
1 800 684 0
1 -802 -803 0
1 802 804 0
1 802 -685 0
1 805 -685 0
1 -805 -691 0
1 -806 -807 0
1 808 809 0
1 810 -809 0
1 -811 -687 0
1 -811 -696 0
1 -811 812 0
1 -681 704 0
1 681 813 0
1 -681 814 0
1 -809 811 0
1 -809 682 0
1 -815 -814 0
1 -816 -561 0
1 -816 817 0
1 -697 818 0
1 697 -696 0
1 704 819 0
1 -820 561 0
1 -820 -812 0
1 821 822 0
1 821 823 0
1 -812 -691 0
1 -812 824 0
1 812 814 0
1 714 -825 0
1 717 825 0
1 -717 702 0
1 717 559 0
1 -717 556 0
1 826 -825 0
1 -826 -827 0
1 826 828 0
1 829 -700 0
1 -829 826 0
1 827 -724 0
1 -827 829 0
1 827 820 0
1 -830 714 0
1 -831 -819 0
1 831 832 0
1 -831 829 0
1 831 -826 0
1 819 -829 0
1 -710 724 0
1 710 -833 0
1 -710 -823 0
1 724 -833 0
1 834 -835 0
1 836 837 0
1 833 834 0
1 -833 724 0
1 722 594 0
1 -722 -709 0
1 731 727 0
1 -838 836 0
1 838 731 0
1 838 839 0
1 -709 738 0
1 711 -838 0
1 -711 840 0
1 711 -841 0
1 839 -842 0
1 -839 838 0
1 839 722 0
1 -835 843 0
1 -835 837 0
1 835 -722 0
1 835 844 0
1 -738 -845 0
1 -738 846 0
1 738 728 0
1 -738 -726 0
1 847 -846 0
1 -847 -840 0
1 846 -848 0
1 846 731 0
1 846 849 0
1 -850 731 0
1 850 -851 0
1 -845 -838 0
1 -845 840 0
1 -845 852 0
1 734 846 0
1 -739 -853 0
1 854 -855 0
1 -851 -854 0
1 -856 -851 0
1 -857 858 0
1 -857 859 0
1 860 861 0
1 -853 848 0
1 853 734 0
1 -853 840 0
1 -858 855 0
1 -862 -863 0
1 -862 864 0
1 -862 857 0
1 865 855 0
1 865 -859 0
1 -866 867 0
1 -868 754 0
1 868 855 0
1 -868 -752 0
1 753 -855 0
1 -753 865 0
1 -869 -870 0
1 -760 751 0
1 -760 -865 0
1 760 871 0
1 864 741 0
1 864 -872 0
1 873 -874 0
1 871 868 0
1 871 -875 0
1 871 876 0
1 872 757 0
1 -872 751 0
1 -877 -878 0
1 879 -880 0
1 879 -881 0
1 -879 762 0
1 874 873 0
1 874 -882 0
1 -874 883 0
1 881 -884 0
1 -881 874 0
1 -881 -877 0
1 -885 747 0
1 885 -884 0
1 885 886 0
1 -885 887 0
1 885 760 0
1 -885 -888 0
1 880 -869 0
1 878 874 0
1 -878 877 0
1 878 889 0
1 890 -887 0
1 -890 881 0
1 -890 610 0
1 -887 -761 0
1 891 -890 0
1 -891 -879 0
1 892 -893 0
1 892 -751 0
1 -882 892 0
1 882 886 0
1 774 894 0
1 774 -773 0
1 -781 769 0
1 -781 894 0
1 781 -765 0
1 895 896 0
1 779 -897 0
1 779 -891 0
1 898 899 0
1 -894 -781 0
1 894 900 0
1 901 902 0
1 903 904 0
1 -778 899 0
1 778 786 0
1 778 776 0
1 -778 777 0
1 899 898 0
1 -905 -898 0
1 905 787 0
1 -771 906 0
1 -907 -908 0
1 -907 -909 0
1 909 908 0
1 797 -910 0
1 797 667 0
1 797 -794 0
1 910 797 0
1 911 777 0
1 -911 -909 0
1 -814 -807 0
1 814 818 0
1 912 -681 0
1 -824 -913 0
1 914 912 0
1 -914 -915 0
1 -914 814 0
1 -916 -917 0
1 916 912 0
1 -823 918 0
1 -823 -919 0
1 -920 825 0
1 -920 -819 0
1 920 -831 0
1 -921 844 0
1 -922 923 0
1 -922 921 0
1 -913 -924 0
1 -918 -925 0
1 919 822 0
1 919 921 0
1 -919 -815 0
1 919 -926 0
1 -927 -922 0
1 -923 831 0
1 923 927 0
1 928 -929 0
1 -930 -929 0
1 -930 -833 0
1 -931 817 0
1 932 842 0
1 -932 -933 0
1 -934 935 0
1 929 930 0
1 -842 936 0
1 842 937 0
1 842 839 0
1 -938 939 0
1 -938 -940 0
1 -933 -938 0
1 -933 -839 0
1 -937 843 0
1 936 941 0
1 942 -938 0
1 843 835 0
1 843 -943 0
1 -941 835 0
1 -944 -854 0
1 -944 -945 0
1 852 939 0
1 852 -946 0
1 947 -848 0
1 -947 938 0
1 947 -948 0
1 -947 -849 0
1 939 -949 0
1 -939 947 0
1 -939 950 0
1 -939 849 0
1 -951 952 0
1 -953 -954 0
1 848 -845 0
1 -848 -841 0
1 849 955 0
1 956 -957 0
1 -956 -853 0
1 -948 -841 0
1 -948 853 0
1 -958 -959 0
1 -958 -960 0
1 958 961 0
1 955 -959 0
1 -955 -962 0
1 962 -963 0
1 -964 958 0
1 964 -965 0
1 -965 841 0
1 966 -967 0
1 -966 961 0
1 966 876 0
1 957 959 0
1 867 -968 0
1 -867 -969 0
1 -876 -970 0
1 876 -971 0
1 967 972 0
1 967 971 0
1 -967 973 0
1 967 871 0
1 -974 975 0
1 -976 867 0
1 861 961 0
1 861 -969 0
1 977 880 0
1 -875 972 0
1 -875 -976 0
1 -889 -972 0
1 978 979 0
1 970 -876 0
1 973 889 0
1 972 -875 0
1 -971 -980 0
1 -971 981 0
1 -971 967 0
1 982 -970 0
1 -884 983 0
1 884 892 0
1 884 973 0
1 984 -985 0
1 -985 -904 0
1 985 864 0
1 985 984 0
1 979 986 0
1 -983 987 0
1 983 988 0
1 -893 -989 0
1 893 -882 0
1 -893 -985 0
1 -990 -991 0
1 -992 989 0
1 993 994 0
1 989 -995 0
1 -996 990 0
1 996 -988 0
1 -997 -998 0
1 -900 896 0
1 -900 -903 0
1 -902 -896 0
1 -902 -900 0
1 995 -896 0
1 999 1000 0
1 -1000 -994 0
1 -1001 -1002 0
1 -1001 995 0
1 924 1003 0
1 924 837 0
1 1004 -918 0
1 1004 934 0
1 -1004 924 0
1 940 926 0
1 -1005 -940 0
1 1006 -807 0
1 -1006 1005 0
1 -915 -943 0
1 -1003 924 0
1 -1007 -916 0
1 -1008 1009 0
1 -945 1010 0
1 1011 1012 0
1 -1012 922 0
1 -1012 -1011 0
1 925 1011 0
1 -926 -1013 0
1 1014 1015 0
1 -1014 -942 0
1 -1016 1015 0
1 -1016 1014 0
1 952 -1017 0
1 -952 -1012 0
1 1018 -935 0
1 -1019 -1011 0
1 1015 -949 0
1 -1015 -1020 0
1 -1015 1018 0
1 935 1013 0
1 -935 1014 0
1 935 1021 0
1 -1010 -929 0
1 1010 1014 0
1 949 964 0
1 949 -939 0
1 949 -955 0
1 -954 1017 0
1 1022 1023 0
1 1024 -959 0
1 -1024 1025 0
1 1024 -1026 0
1 1027 -1026 0
1 -1028 1029 0
1 1017 949 0
1 1017 1030 0
1 1017 1031 0
1 1017 1026 0
1 -968 1032 0
1 968 -1033 0
1 1034 1025 0
1 -1034 -876 0
1 1025 -1035 0
1 1025 1036 0
1 1025 1033 0
1 1033 -959 0
1 -1033 -950 0
1 1033 -1037 0
1 1033 -1038 0
1 1038 960 0
1 -1038 -1039 0
1 1038 -1026 0
1 -1040 -1030 0
1 1040 1041 0
1 -1040 -1042 0
1 -1037 -1043 0
1 1044 -1043 0
1 -1044 -1045 0
1 1044 -1046 0
1 1044 -969 0
1 1036 1047 0
1 1036 -981 0
1 1036 1025 0
1 -1036 -1034 0
1 -1042 -1047 0
1 1042 -1048 0
1 1049 1050 0
1 -981 1043 0
1 981 -972 0
1 -981 -1051 0
1 -981 -971 0
1 1052 -1053 0
1 -1043 980 0
1 -1046 -1054 0
1 -1053 1055 0
1 1045 -980 0
1 -1045 -1051 0
1 1056 -1057 0
1 -1058 990 0
1 1058 -1047 0
1 1058 983 0
1 1054 -1059 0
1 987 992 0
1 -987 -1060 0
1 987 -1061 0
1 -975 998 0
1 975 1054 0
1 1062 -1063 0
1 1064 1055 0
1 -1064 -1058 0
1 1065 979 0
1 1065 1057 0
1 1065 1061 0
1 988 979 0
1 998 1066 0
1 -1060 -1065 0
1 -1067 987 0
1 -1068 1010 0
1 -1068 935 0
1 1068 1069 0
1 -1023 -1069 0
1 -1070 1010 0
1 -1070 -1023 0
1 -1071 -1031 0
1 1072 -1073 0
1 -1074 1069 0
1 1069 1068 0
1 -1029 -1075 0
1 -1029 1076 0
1 -1029 -1019 0
1 1029 -1077 0
1 -1020 -1072 0
1 1073 -1031 0
1 1073 -1072 0
1 -1076 1029 0
1 1076 1078 0
1 -1075 1079 0
1 -1075 -1030 0
1 -1080 -1073 0
1 1080 -1079 0
1 -1077 1029 0
1 -1077 1020 0
1 -1030 -1027 0
1 -1078 -1075 0
1 1078 1081 0
1 -1082 1083 0
1 1082 1084 0
1 1081 1048 0
1 1021 -1073 0
1 -1021 -1085 0
1 -1021 1026 0
1 -1086 1087 0
1 1086 1079 0
1 -1084 -1033 0
1 1088 -1089 0
1 -1048 1090 0
1 -1091 1092 0
1 1093 1078 0
1 1090 -1094 0
1 -1090 1095 0
1 -1050 -960 0
1 1050 -1047 0
1 -1050 -1096 0
1 1047 1049 0
1 1097 -1098 0
1 -1097 -1093 0
1 1097 1091 0
1 -1097 -1096 0
1 1098 -1099 0
1 1099 1098 0
1 1099 1100 0
1 1101 -1066 0
1 1101 -1099 0
1 1101 1097 0
1 1096 1047 0
1 -1096 1102 0
1 1096 -1032 0
1 -1089 1035 0
1 -1089 -1102 0
1 -1089 1097 0
1 -1103 -1104 0
1 1103 1045 0
1 1103 1046 0
1 1066 -1105 0
1 1066 -1064 0
1 1066 -1100 0
1 -1100 1106 0
1 1107 -1066 0
1 1107 -1103 0
1 -1107 -1097 0
1 -1107 1100 0
1 -1104 1098 0
1 1106 1049 0
1 -1079 1108 0
1 1109 1088 0
1 1085 -1108 0
1 1085 1110 0
1 -1111 -1112 0
1 -1111 1113 0
1 1114 1115 0
1 -1095 -1116 0
1 -1095 -1111 0
1 1116 -1110 0
1 1113 1112 0
1 -1117 -1118 0
1 1117 1098 0
1 1117 -1119 0
1 1117 1090 0
1 -1117 -1120 0
1 1110 -1121 0
1 -1110 -1117 0
1 -1110 -1122 0
1 1120 1117 0
1 1120 1116 0
1 -1123 1117 0
1 -1124 1090 0
1 1121 -1119 0
1 1121 -1125 0
1 -1126 -1021 0
1 -1087 1121 0
1 -1087 1124 0
1 1087 -1122 0
